Maximize
F 

Subject to
F - 9.0y221 - 6.0y199 - 12.0y144 - 6.0y243 - 6.0y92 - 12.0y113 - 9.0y112 - 6.0y148 - 9.0y60 - 9.0y146 - 6.0y169 - 12.0y154 - 6.0y192 - 9.0y265 - 9.0y46 - 12.0y250 - 9.0y237 - 9.0y245 - 12.0y226 - 3.0y110 - 6.0y22 - 3.0y147 = 0

x240x148x1 + x240x192x1 + x240x265x1 + x240x237x1 
<= 1
x183x148x1 + x183x169x1 + x183x192x1 + x183x265x1 + x183x46x1 + x183x237x1 + x183x245x1 
<= 1
x51x22x2 + x51x147x2 
<= 1
x240x148x2 + x240x154x2 + x240x192x2 + x240x237x2 + x240x110x2 
<= 1
x261x237x2 + x261x245x2 + x261x22x2 + x261x147x2 
<= 1

x51x22x3 + x51x147x3 
<= 1
x183x169x3 + x183x250x3 + x183x226x3 + x183x22x3 + x183x147x3 
<= 1
x52x144x3 + x52x169x3 + x52x250x3 + x52x226x3 + x52x22x3 + x52x147x3 
<= 2
x106x144x3 + x106x113x3 + x106x169x3 + x106x250x3 + x106x226x3 + x106x22x3 + x106x147x3 
<= 1
x261x144x3 + x261x250x3 + x261x226x3 + x261x22x3 + x261x147x3 
<= 1



- x221x112x2 - x221x146x2 - x221x237x2 - x221x245x2 - x221x110x2 - x221x22x2 - x221x147x2 
= 0



- x199x113x1 - x199x146x1 - x199x46x1 - x199x245x1 
= 0





x52x144x3 + x106x144x3 + x261x144x3 
- x144x0x3
- x144x22x3 - x144x147x3 
= 0




- x243x169x3 - x243x250x3 - x243x226x3 
= 0



- x92x154x2 - x92x237x2 
= 0


x199x113x1 
- x113x0x1
- x113x146x1 - x113x46x1 - x113x245x1 
= 0

x106x113x3 
- x113x0x3
- x113x250x3 - x113x226x3 
= 0


x221x112x2 
- x112x0x2
- x112x245x2 - x112x110x2 
= 0


x240x148x1 + x183x148x1 
- x148x0x1

= 0
x240x148x2 
- x148x0x2

= 0



- x60x245x1 
= 0



x199x146x1 + x113x146x1 
- x146x0x1
- x146x245x1 
= 0
x221x146x2 
- x146x0x2
- x146x245x2 - x146x110x2 
= 0


x183x169x1 
- x169x0x1

= 0

x183x169x3 + x52x169x3 + x106x169x3 + x243x169x3 
- x169x0x3

= 0


x240x154x2 + x92x154x2 
- x154x0x2

= 0


x240x192x1 + x183x192x1 
- x192x0x1
- x192x265x1 - x192x237x1 
= 0
x240x192x2 
- x192x0x2
- x192x237x2 
= 0


x240x265x1 + x183x265x1 + x192x265x1 
- x265x0x1
- x265x237x1 
= 0



x183x46x1 + x199x46x1 + x113x46x1 
- x46x0x1

= 0





x183x250x3 + x52x250x3 + x106x250x3 + x261x250x3 + x243x250x3 + x113x250x3 
- x250x0x3
- x250x226x3 
= 0

x240x237x1 + x183x237x1 + x192x237x1 + x265x237x1 
- x237x0x1

= 0
x240x237x2 + x261x237x2 + x221x237x2 + x92x237x2 + x192x237x2 
- x237x0x2

= 0


x183x245x1 + x199x245x1 + x113x245x1 + x60x245x1 + x146x245x1 
- x245x0x1

= 0
x261x245x2 + x221x245x2 + x112x245x2 + x146x245x2 
- x245x0x2

= 0




x183x226x3 + x52x226x3 + x106x226x3 + x261x226x3 + x243x226x3 + x113x226x3 + x250x226x3 
- x226x0x3

= 0


x240x110x2 + x221x110x2 + x112x110x2 + x146x110x2 
- x110x0x2

= 0



x51x22x2 + x261x22x2 + x221x22x2 
- x22x0x2

= 0
x51x22x3 + x183x22x3 + x52x22x3 + x106x22x3 + x261x22x3 + x144x22x3 
- x22x0x3

= 0


x51x147x2 + x261x147x2 + x221x147x2 
- x147x0x2

= 0
x51x147x3 + x183x147x3 + x52x147x3 + x106x147x3 + x261x147x3 + x144x147x3 
- x147x0x3

= 0

2y221 = 0
2y199 = 0
2y144 - x52x144x3 - x106x144x3 - x261x144x3 = 0
2y243 = 0
2y92 = 0
1y113 - x199x113x1 = 0
1y113 - x106x113x3 = 0
2y112 - x221x112x2 = 0
1y148 - x240x148x1 - x183x148x1 = 0
1y148 - x240x148x2 = 0
2y60 = 0
1y146 - x199x146x1 - x113x146x1 = 0
1y146 - x221x146x2 = 0
1y169 - x183x169x1 = 0
1y169 - x183x169x3 - x52x169x3 - x106x169x3 - x243x169x3 = 0
2y154 - x240x154x2 - x92x154x2 = 0
1y192 - x240x192x1 - x183x192x1 = 0
1y192 - x240x192x2 = 0
2y265 - x240x265x1 - x183x265x1 - x192x265x1 = 0
2y46 - x183x46x1 - x199x46x1 - x113x46x1 = 0
2y250 - x183x250x3 - x52x250x3 - x106x250x3 - x261x250x3 - x243x250x3 - x113x250x3 = 0
1y237 - x240x237x1 - x183x237x1 - x192x237x1 - x265x237x1 = 0
1y237 - x240x237x2 - x261x237x2 - x221x237x2 - x92x237x2 - x192x237x2 = 0
1y245 - x183x245x1 - x199x245x1 - x113x245x1 - x60x245x1 - x146x245x1 = 0
1y245 - x261x245x2 - x221x245x2 - x112x245x2 - x146x245x2 = 0
2y226 - x183x226x3 - x52x226x3 - x106x226x3 - x261x226x3 - x243x226x3 - x113x226x3 - x250x226x3 = 0
2y110 - x240x110x2 - x221x110x2 - x112x110x2 - x146x110x2 = 0
1y22 - x51x22x2 - x261x22x2 - x221x22x2 = 0
1y22 - x51x22x3 - x183x22x3 - x52x22x3 - x106x22x3 - x261x22x3 - x144x22x3 = 0
1y147 - x51x147x2 - x261x147x2 - x221x147x2 = 0
1y147 - x51x147x3 - x183x147x3 - x52x147x3 - x106x147x3 - x261x147x3 - x144x147x3 = 0

s51 - s22 + 9.439159z51z22z2 <= 8.14
s51 - s22 + 9.439159z51z22z3 <= 8.14
s51 - s147 + 9.431827z51z147z2 <= 8.14
s51 - s147 + 9.431827z51z147z3 <= 8.14
s240 - s148 + 9.166606z240z148z1 <= 8.03
s240 - s148 + 9.166606z240z148z2 <= 8.03
s240 - s154 + 9.149057z240z154z2 <= 8.03
s240 - s192 + 9.234391z240z192z1 <= 8.03
s240 - s192 + 9.234391z240z192z2 <= 8.03
s240 - s265 + 9.247301z240z265z1 <= 8.03
s240 - s237 + 9.240422z240z237z1 <= 8.03
s240 - s237 + 9.240422z240z237z2 <= 8.03
s240 - s110 + 9.435432z240z110z2 <= 8.03
s183 - s148 + 8.877346z183z148z1 <= 7.77
s183 - s169 + 9.156861z183z169z1 <= 7.77
s183 - s169 + 9.156861z183z169z3 <= 7.77
s183 - s192 + 8.998079z183z192z1 <= 7.77
s183 - s265 + 9.011327z183z265z1 <= 7.77
s183 - s46 + 9.261062z183z46z1 <= 7.77
s183 - s250 + 9.308531z183z250z3 <= 7.77
s183 - s237 + 9.001270z183z237z1 <= 7.77
s183 - s245 + 9.304224z183z245z1 <= 7.77
s183 - s226 + 9.317856z183z226z3 <= 7.77
s183 - s22 + 9.279184z183z22z3 <= 7.77
s183 - s147 + 9.278137z183z147z3 <= 7.77
s52 - s144 + 9.046740z52z144z3 <= 7.46
s52 - s169 + 9.100023z52z169z3 <= 7.46
s52 - s250 + 9.217407z52z250z3 <= 7.46
s52 - s226 + 9.226235z52z226z3 <= 7.46
s52 - s22 + 9.078135z52z22z3 <= 7.46
s52 - s147 + 9.085669z52z147z3 <= 7.46
s106 - s144 + 8.846977z106z144z3 <= 7.54
s106 - s113 + 9.118166z106z113z3 <= 7.54
s106 - s169 + 9.132257z106z169z3 <= 7.54
s106 - s250 + 9.125063z106z250z3 <= 7.54
s106 - s226 + 9.131615z106z226z3 <= 7.54
s106 - s22 + 8.861629z106z22z3 <= 7.54
s106 - s147 + 8.875902z106z147z3 <= 7.54
s261 - s144 + 9.094899z261z144z3 <= 7.86
s261 - s250 + 9.376987z261z250z3 <= 7.86
s261 - s237 + 9.364032z261z237z2 <= 7.86
s261 - s245 + 9.349298z261z245z2 <= 7.86
s261 - s226 + 9.383261z261z226z3 <= 7.86
s261 - s22 + 9.111089z261z22z2 <= 7.86
s261 - s22 + 9.111089z261z22z3 <= 7.86
s261 - s147 + 9.124661z261z147z2 <= 7.86
s261 - s147 + 9.124661z261z147z3 <= 7.86
s221 - s112 + 10.134328z221z112z2 <= 9.05
s221 - s146 + 10.120868z221z146z2 <= 9.05
s221 - s237 + 10.336744z221z237z2 <= 9.05
s221 - s245 + 10.210555z221z245z2 <= 9.05
s221 - s110 + 10.182833z221z110z2 <= 9.05
s221 - s22 + 10.456393z221z22z2 <= 9.05
s221 - s147 + 10.438387z221z147z2 <= 9.05
s199 - s113 + 10.125901z199z113z1 <= 9.09
s199 - s146 + 10.132688z199z146z1 <= 9.09
s199 - s46 + 10.174853z199z46z1 <= 9.09
s199 - s245 + 10.223333z199z245z1 <= 9.09
s144 - s22 + 10.157140z144z22z3 <= 9.11
s144 - s147 + 10.152164z144z147z3 <= 9.11
s243 - s169 + 10.219107z243z169z3 <= 9.12
s243 - s250 + 10.274632z243z250z3 <= 9.12
s243 - s226 + 10.282207z243z226z3 <= 9.12
s92 - s154 + 10.178074z92z154z2 <= 9.13
s92 - s237 + 10.271421z92z237z2 <= 9.13
s113 - s146 + 10.181082z113z146z1 <= 9.16
s113 - s46 + 10.264350z113z46z1 <= 9.16
s113 - s250 + 10.234535z113z250z3 <= 9.16
s113 - s245 + 10.260885z113z245z1 <= 9.16
s113 - s226 + 10.242462z113z226z3 <= 9.16
s112 - s245 + 10.271103z112z245z2 <= 9.19
s112 - s110 + 10.397096z112z110z2 <= 9.19
s60 - s245 + 10.389505z60z245z1 <= 9.21
s146 - s245 + 10.331754z146z245z1 <= 9.22
s146 - s245 + 10.331754z146z245z2 <= 9.22
s146 - s110 + 10.400124z146z110z2 <= 9.22
s192 - s265 + 10.273334z192z265z1 <= 9.26
s192 - s237 + 10.280001z192z237z1 <= 9.26
s192 - s237 + 10.280001z192z237z2 <= 9.26
s265 - s237 + 10.324038z265z237z1 <= 9.30
s250 - s226 + 10.389428z250z226z3 <= 9.38

x51x22x2 - 1z51z22z2 <= 0
x51x22x3 - 1z51z22z3 <= 0
x51x147x2 - 1z51z147z2 <= 0
x51x147x3 - 1z51z147z3 <= 0
x240x148x1 - 1z240z148z1 <= 0
x240x148x2 - 1z240z148z2 <= 0
x240x154x2 - 2z240z154z2 <= 0
x240x192x1 - 1z240z192z1 <= 0
x240x192x2 - 1z240z192z2 <= 0
x240x265x1 - 2z240z265z1 <= 0
x240x237x1 - 1z240z237z1 <= 0
x240x237x2 - 1z240z237z2 <= 0
x240x110x2 - 2z240z110z2 <= 0
x183x148x1 - 1z183z148z1 <= 0
x183x169x1 - 1z183z169z1 <= 0
x183x169x3 - 1z183z169z3 <= 0
x183x192x1 - 1z183z192z1 <= 0
x183x265x1 - 2z183z265z1 <= 0
x183x46x1 - 2z183z46z1 <= 0
x183x250x3 - 2z183z250z3 <= 0
x183x237x1 - 1z183z237z1 <= 0
x183x245x1 - 1z183z245z1 <= 0
x183x226x3 - 2z183z226z3 <= 0
x183x22x3 - 1z183z22z3 <= 0
x183x147x3 - 1z183z147z3 <= 0
x52x144x3 - 2z52z144z3 <= 0
x52x169x3 - 1z52z169z3 <= 0
x52x250x3 - 2z52z250z3 <= 0
x52x226x3 - 2z52z226z3 <= 0
x52x22x3 - 1z52z22z3 <= 0
x52x147x3 - 1z52z147z3 <= 0
x106x144x3 - 2z106z144z3 <= 0
x106x113x3 - 1z106z113z3 <= 0
x106x169x3 - 1z106z169z3 <= 0
x106x250x3 - 2z106z250z3 <= 0
x106x226x3 - 2z106z226z3 <= 0
x106x22x3 - 1z106z22z3 <= 0
x106x147x3 - 1z106z147z3 <= 0
x261x144x3 - 2z261z144z3 <= 0
x261x250x3 - 2z261z250z3 <= 0
x261x237x2 - 1z261z237z2 <= 0
x261x245x2 - 1z261z245z2 <= 0
x261x226x3 - 2z261z226z3 <= 0
x261x22x2 - 1z261z22z2 <= 0
x261x22x3 - 1z261z22z3 <= 0
x261x147x2 - 1z261z147z2 <= 0
x261x147x3 - 1z261z147z3 <= 0
x221x112x2 - 2z221z112z2 <= 0
x221x146x2 - 1z221z146z2 <= 0
x221x237x2 - 1z221z237z2 <= 0
x221x245x2 - 1z221z245z2 <= 0
x221x110x2 - 2z221z110z2 <= 0
x221x22x2 - 1z221z22z2 <= 0
x221x147x2 - 1z221z147z2 <= 0
x221x0x2 <= 2
x199x113x1 - 1z199z113z1 <= 0
x199x146x1 - 1z199z146z1 <= 0
x199x46x1 - 2z199z46z1 <= 0
x199x245x1 - 1z199z245z1 <= 0
x199x0x1 <= 2
x144x22x3 - 1z144z22z3 <= 0
x144x147x3 - 1z144z147z3 <= 0
x144x0x3 <= 2
x243x169x3 - 1z243z169z3 <= 0
x243x250x3 - 2z243z250z3 <= 0
x243x226x3 - 2z243z226z3 <= 0
x243x0x3 <= 2
x92x154x2 - 2z92z154z2 <= 0
x92x237x2 - 1z92z237z2 <= 0
x92x0x2 <= 2
x113x146x1 - 1z113z146z1 <= 0
x113x46x1 - 2z113z46z1 <= 0
x113x250x3 - 2z113z250z3 <= 0
x113x245x1 - 1z113z245z1 <= 0
x113x226x3 - 2z113z226z3 <= 0
x113x0x1 <= 1
x113x0x3 <= 1
x112x245x2 - 1z112z245z2 <= 0
x112x110x2 - 2z112z110z2 <= 0
x112x0x2 <= 2
x148x0x1 <= 1
x148x0x2 <= 1
x60x245x1 - 1z60z245z1 <= 0
x60x0x1 <= 2
x146x245x1 - 1z146z245z1 <= 0
x146x245x2 - 1z146z245z2 <= 0
x146x110x2 - 2z146z110z2 <= 0
x146x0x1 <= 1
x146x0x2 <= 1
x169x0x1 <= 1
x169x0x3 <= 1
x154x0x2 <= 2
x192x265x1 - 2z192z265z1 <= 0
x192x237x1 - 1z192z237z1 <= 0
x192x237x2 - 1z192z237z2 <= 0
x192x0x1 <= 1
x192x0x2 <= 1
x265x237x1 - 1z265z237z1 <= 0
x265x0x1 <= 2
x46x0x1 <= 2
x250x226x3 - 2z250z226z3 <= 0
x250x0x3 <= 2
x237x0x1 <= 1
x237x0x2 <= 1
x245x0x1 <= 1
x245x0x2 <= 1
x226x0x3 <= 2
x110x0x2 <= 2
x22x0x2 <= 1
x22x0x3 <= 1
x147x0x2 <= 1
x147x0x3 <= 1

s144 - 6.00z52z144z3 >= 0
s144 - 6.00z106z144z3 >= 0
s144 - 6.00z261z144z3 >= 0
s113 - 6.00z106z113z3 >= 0
s113 - 6.00z199z113z1 >= 0
s112 - 6.00z221z112z2 >= 0
s148 - 6.00z240z148z1 >= 0
s148 - 6.00z240z148z2 >= 0
s148 - 6.00z183z148z1 >= 0
s146 - 6.00z221z146z2 >= 0
s146 - 6.00z199z146z1 >= 0
s146 - 6.00z113z146z1 >= 0
s169 - 6.00z183z169z1 >= 0
s169 - 6.00z183z169z3 >= 0
s169 - 6.00z52z169z3 >= 0
s169 - 6.00z106z169z3 >= 0
s169 - 6.00z243z169z3 >= 0
s154 - 6.00z240z154z2 >= 0
s154 - 6.00z92z154z2 >= 0
s192 - 6.00z240z192z1 >= 0
s192 - 6.00z240z192z2 >= 0
s192 - 6.00z183z192z1 >= 0
s265 - 6.00z240z265z1 >= 0
s265 - 6.00z183z265z1 >= 0
s265 - 6.00z192z265z1 >= 0
s46 - 6.00z183z46z1 >= 0
s46 - 6.00z199z46z1 >= 0
s46 - 6.00z113z46z1 >= 0
s250 - 6.00z183z250z3 >= 0
s250 - 6.00z52z250z3 >= 0
s250 - 6.00z106z250z3 >= 0
s250 - 6.00z261z250z3 >= 0
s250 - 6.00z243z250z3 >= 0
s250 - 6.00z113z250z3 >= 0
s237 - 6.00z240z237z1 >= 0
s237 - 6.00z240z237z2 >= 0
s237 - 6.00z183z237z1 >= 0
s237 - 6.00z261z237z2 >= 0
s237 - 6.00z221z237z2 >= 0
s237 - 6.00z92z237z2 >= 0
s237 - 6.00z192z237z1 >= 0
s237 - 6.00z192z237z2 >= 0
s237 - 6.00z265z237z1 >= 0
s245 - 6.00z183z245z1 >= 0
s245 - 6.00z261z245z2 >= 0
s245 - 6.00z221z245z2 >= 0
s245 - 6.00z199z245z1 >= 0
s245 - 6.00z113z245z1 >= 0
s245 - 6.00z112z245z2 >= 0
s245 - 6.00z60z245z1 >= 0
s245 - 6.00z146z245z1 >= 0
s245 - 6.00z146z245z2 >= 0
s226 - 6.00z183z226z3 >= 0
s226 - 6.00z52z226z3 >= 0
s226 - 6.00z106z226z3 >= 0
s226 - 6.00z261z226z3 >= 0
s226 - 6.00z243z226z3 >= 0
s226 - 6.00z113z226z3 >= 0
s226 - 6.00z250z226z3 >= 0
s110 - 6.00z240z110z2 >= 0
s110 - 6.00z221z110z2 >= 0
s110 - 6.00z112z110z2 >= 0
s110 - 6.00z146z110z2 >= 0
s22 - 6.00z51z22z2 >= 0
s22 - 6.00z51z22z3 >= 0
s22 - 6.00z183z22z3 >= 0
s22 - 6.00z52z22z3 >= 0
s22 - 6.00z106z22z3 >= 0
s22 - 6.00z261z22z2 >= 0
s22 - 6.00z261z22z3 >= 0
s22 - 6.00z221z22z2 >= 0
s22 - 6.00z144z22z3 >= 0
s147 - 6.00z51z147z2 >= 0
s147 - 6.00z51z147z3 >= 0
s147 - 6.00z183z147z3 >= 0
s147 - 6.00z52z147z3 >= 0
s147 - 6.00z106z147z3 >= 0
s147 - 6.00z261z147z2 >= 0
s147 - 6.00z261z147z3 >= 0
s147 - 6.00z221z147z2 >= 0
s147 - 6.00z144z147z3 >= 0

Bounds
s51 = 8.138494
s73 = 8.099044
s240 = 8.027402
s235 = 8.294843
s183 = 7.769850
s109 = 8.626907
s232 = 8.276943
s4 = 8.751021
s61 = 8.792790
s59 = 8.726652
s83 = 8.806369
s52 = 7.456560
s106 = 7.544910
s261 = 7.855920
8.050000 <= s221 <= 9.050000
8.090000 <= s199 <= 9.090000
8.110000 <= s144 <= 9.110000
8.120000 <= s243 <= 9.120000
8.130000 <= s92 <= 9.130000
8.160000 <= s113 <= 9.160000
8.190000 <= s112 <= 9.190000
8.190000 <= s148 <= 9.190000
8.210000 <= s60 <= 9.210000
8.220000 <= s146 <= 9.220000
8.230000 <= s169 <= 9.230000
8.240000 <= s154 <= 9.240000
8.260000 <= s192 <= 9.260000
8.300000 <= s265 <= 9.300000
8.310000 <= s46 <= 9.310000
8.380000 <= s250 <= 9.380000
8.390000 <= s237 <= 9.390000
8.390000 <= s245 <= 9.390000
8.420000 <= s226 <= 9.420000
8.450000 <= s110 <= 9.450000
8.470000 <= s22 <= 9.470000
8.470000 <= s147 <= 9.470000

General
x51x22x2 x51x22x3 x51x147x2 x51x147x3 

x240x148x1 x240x148x2 x240x154x2 x240x192x1 x240x192x2 x240x265x1 x240x237x1 x240x237x2 x240x110x2 

x183x148x1 x183x169x1 x183x169x3 x183x192x1 x183x265x1 x183x46x1 x183x250x3 x183x237x1 x183x245x1 x183x226x3 x183x22x3 x183x147x3 






x52x144x3 x52x169x3 x52x250x3 x52x226x3 x52x22x3 x52x147x3 
x106x144x3 x106x113x3 x106x169x3 x106x250x3 x106x226x3 x106x22x3 x106x147x3 
x261x144x3 x261x250x3 x261x237x2 x261x245x2 x261x226x3 x261x22x2 x261x22x3 x261x147x2 x261x147x3 
x221x112x2 x221x146x2 x221x237x2 x221x245x2 x221x110x2 x221x22x2 x221x147x2 x221x0x2 
x199x113x1 x199x146x1 x199x46x1 x199x245x1 x199x0x1 
x144x22x3 x144x147x3 x144x0x3 
x243x169x3 x243x250x3 x243x226x3 x243x0x3 
x92x154x2 x92x237x2 x92x0x2 
x113x146x1 x113x46x1 x113x250x3 x113x245x1 x113x226x3 x113x0x1 x113x0x3 
x112x245x2 x112x110x2 x112x0x2 
x148x0x1 x148x0x2 
x60x245x1 x60x0x1 
x146x245x1 x146x245x2 x146x110x2 x146x0x1 x146x0x2 
x169x0x1 x169x0x3 
x154x0x2 
x192x265x1 x192x237x1 x192x237x2 x192x0x1 x192x0x2 
x265x237x1 x265x0x1 
x46x0x1 
x250x226x3 x250x0x3 
x237x0x1 x237x0x2 
x245x0x1 x245x0x2 
x226x0x3 
x110x0x2 
x22x0x2 x22x0x3 
x147x0x2 x147x0x3 

Binaries
y221 y199 y144 y243 y92 y113 y112 y148 y60 y146 y169 y154 y192 y265 y46 y250 y237 y245 y226 y110 y22 y147 
z51z22z2 z51z22z3 z51z147z2 z51z147z3 

z240z148z1 z240z148z2 z240z154z2 z240z192z1 z240z192z2 z240z265z1 z240z237z1 z240z237z2 z240z110z2 

z183z148z1 z183z169z1 z183z169z3 z183z192z1 z183z265z1 z183z46z1 z183z250z3 z183z237z1 z183z245z1 z183z226z3 z183z22z3 z183z147z3 






z52z144z3 z52z169z3 z52z250z3 z52z226z3 z52z22z3 z52z147z3 
z106z144z3 z106z113z3 z106z169z3 z106z250z3 z106z226z3 z106z22z3 z106z147z3 
z261z144z3 z261z250z3 z261z237z2 z261z245z2 z261z226z3 z261z22z2 z261z22z3 z261z147z2 z261z147z3 
z221z112z2 z221z146z2 z221z237z2 z221z245z2 z221z110z2 z221z22z2 z221z147z2 
z199z113z1 z199z146z1 z199z46z1 z199z245z1 
z144z22z3 z144z147z3 
z243z169z3 z243z250z3 z243z226z3 
z92z154z2 z92z237z2 
z113z146z1 z113z46z1 z113z250z3 z113z245z1 z113z226z3 
z112z245z2 z112z110z2 

z60z245z1 
z146z245z1 z146z245z2 z146z110z2 


z192z265z1 z192z237z1 z192z237z2 
z265z237z1 

z250z226z3 







End